p cnf 266 1897
16 44 65 0
63 96 105 147 0
68 97 110 156 0
85 90 144 158 0
69 80 107 0
66 70 84 172 0
59 88 175 178 181 0
113 185 0
114 119 193 195 0
124 125 128 132 0
76 136 0
95 141 0
103 121 143 210 0
256 261 0
82 146 150 0
58 138 152 0
99 111 116 118 0
55 56 127 130 0
20 54 122 0
50 52 0
47 83 0
14 41 42 61 100 0
37 39 67 101 0
11 35 36 0
33 78 149 0
73 108 0
31 57 60 0
29 112 0
27 28 0
22 24 25 0
21 40 0
77 145 0
71 151 0
18 19 26 53 131 0
17 45 92 134 139 0
13 15 64 91 0
38 263 0
48 93 98 0
12 43 89 0
9 10 62 148 153 0
79 81 109 0
74 75 86 157 159 0
154 160 161 163 165 0
30 32 106 166 167 168 0
115 169 170 171 173 0
174 176 179 182 0
126 129 133 184 186 0
187 188 190 192 194 196 0
137 197 223 0
198 199 201 0
140 203 204 205 0
206 207 208 0
209 211 0
-16 -212 0
-63 -212 0
-68 -212 0
-158 -212 0
-34 -212 0
-16 -63 0
-16 -68 0
-16 -158 0
-16 -34 0
-63 -68 0
-63 -158 0
-34 -63 0
-68 -158 0
-34 -68 0
-34 -158 0
-88 -114 0
-88 -213 0
-88 -124 0
-88 -214 0
-76 -88 0
-114 -213 0
-114 -124 0
-114 -214 0
-76 -114 0
-124 -213 0
-213 -214 0
-76 -213 0
-124 -214 0
-76 -124 0
-76 -214 0
-103 -215 0
-103 -146 0
-103 -152 0
-103 -216 0
-103 -111 0
-146 -215 0
-152 -215 0
-215 -216 0
-111 -215 0
-146 -152 0
-146 -216 0
-111 -146 0
-152 -216 0
-111 -152 0
-111 -216 0
-14 -47 0
-39 -47 0
-14 -39 0
-53 -217 0
-217 -219 0
-17 -217 0
-91 -217 0
-53 -219 0
-17 -53 0
-53 -91 0
-17 -219 0
-91 -219 0
-17 -91 0
-10 -157 0
-10 -160 0
-10 -166 0
-10 -169 0
-157 -160 0
-157 -166 0
-157 -169 0
-160 -166 0
-160 -169 0
-166 -169 0
-88 -212 0
-103 -212 0
-212 -217 0
-10 -212 0
-88 -103 0
-88 -217 0
-10 -88 0
-103 -217 0
-10 -103 0
-10 -217 0
-16 -114 0
-16 -215 0
-16 -53 0
-16 -157 0
-114 -215 0
-53 -114 0
-114 -157 0
-53 -215 0
-157 -215 0
-53 -157 0
-63 -213 0
-63 -146 0
-47 -63 0
-63 -219 0
-63 -160 0
-146 -213 0
-47 -213 0
-213 -219 0
-160 -213 0
-47 -146 0
-146 -219 0
-146 -160 0
-47 -219 0
-47 -160 0
-160 -219 0
-68 -124 0
-68 -152 0
-14 -68 0
-17 -68 0
-68 -166 0
-124 -152 0
-14 -124 0
-17 -124 0
-124 -166 0
-14 -152 0
-17 -152 0
-152 -166 0
-14 -17 0
-14 -166 0
-17 -166 0
-158 -214 0
-158 -216 0
-39 -158 0
-91 -158 0
-158 -169 0
-214 -216 0
-39 -214 0
-91 -214 0
-169 -214 0
-39 -216 0
-91 -216 0
-169 -216 0
-39 -91 0
-39 -169 0
-91 -169 0
-34 -76 0
-34 -111 0
-76 -111 0
-122 -220 0
-42 -122 0
-101 -122 0
-42 -220 0
-101 -220 0
-42 -101 0
-60 -108 0
-102 -108 0
-108 -222 0
-60 -102 0
-60 -222 0
-102 -222 0
-131 -225 0
-134 -225 0
-15 -225 0
-131 -134 0
-15 -131 0
-15 -134 0
-62 -159 0
-62 -167 0
-62 -115 0
-159 -167 0
-115 -159 0
-115 -167 0
-108 -122 0
-122 -225 0
-62 -122 0
-108 -225 0
-62 -108 0
-62 -225 0
-60 -220 0
-131 -220 0
-159 -220 0
-60 -131 0
-60 -159 0
-131 -159 0
-42 -102 0
-42 -134 0
-42 -167 0
-102 -134 0
-102 -167 0
-134 -167 0
-101 -222 0
-15 -101 0
-101 -115 0
-15 -222 0
-115 -222 0
-15 -115 0
-125 -227 0
-189 -227 0
-125 -189 0
-52 -228 0
-52 -83 0
-52 -61 0
-52 -67 0
-52 -229 0
-33 -52 0
-83 -228 0
-61 -228 0
-67 -228 0
-228 -229 0
-33 -228 0
-61 -83 0
-67 -83 0
-83 -229 0
-33 -83 0
-61 -67 0
-61 -229 0
-33 -61 0
-67 -229 0
-33 -67 0
-33 -229 0
-57 -230 0
-112 -230 0
-117 -230 0
-180 -230 0
-28 -230 0
-25 -230 0
-57 -112 0
-57 -117 0
-57 -180 0
-28 -57 0
-25 -57 0
-112 -117 0
-112 -180 0
-28 -112 0
-25 -112 0
-117 -180 0
-28 -117 0
-25 -117 0
-28 -180 0
-25 -180 0
-25 -28 0
-231 -232 0
-231 -233 0
-145 -231 0
-151 -231 0
-231 -234 0
-231 -235 0
-232 -233 0
-145 -232 0
-151 -232 0
-232 -234 0
-232 -235 0
-145 -233 0
-151 -233 0
-233 -234 0
-233 -235 0
-145 -151 0
-145 -234 0
-145 -235 0
-151 -234 0
-151 -235 0
-234 -235 0
-19 -236 0
-51 -236 0
-45 -236 0
-64 -236 0
-38 -236 0
-89 -236 0
-19 -51 0
-19 -45 0
-19 -64 0
-19 -38 0
-19 -89 0
-45 -51 0
-51 -64 0
-38 -51 0
-51 -89 0
-45 -64 0
-38 -45 0
-45 -89 0
-38 -64 0
-64 -89 0
-38 -89 0
-74 -79 0
-79 -161 0
-32 -79 0
-79 -170 0
-79 -174 0
-79 -187 0
-74 -161 0
-32 -74 0
-74 -170 0
-74 -174 0
-74 -187 0
-32 -161 0
-161 -170 0
-161 -174 0
-161 -187 0
-32 -170 0
-32 -174 0
-32 -187 0
-170 -174 0
-170 -187 0
-174 -187 0
-23 -198 0
-23 -237 0
-23 -203 0
-23 -206 0
-23 -209 0
-23 -238 0
-198 -237 0
-198 -203 0
-198 -206 0
-198 -209 0
-198 -238 0
-203 -237 0
-206 -237 0
-209 -237 0
-237 -238 0
-203 -206 0
-203 -209 0
-203 -238 0
-206 -209 0
-206 -238 0
-209 -238 0
-52 -230 0
-52 -231 0
-52 -236 0
-52 -79 0
-23 -52 0
-230 -231 0
-230 -236 0
-79 -230 0
-23 -230 0
-231 -236 0
-79 -231 0
-23 -231 0
-79 -236 0
-23 -236 0
-23 -79 0
-57 -228 0
-228 -232 0
-19 -228 0
-74 -228 0
-198 -228 0
-57 -232 0
-19 -57 0
-57 -74 0
-57 -198 0
-19 -232 0
-74 -232 0
-198 -232 0
-19 -74 0
-19 -198 0
-74 -198 0
-83 -227 0
-112 -227 0
-227 -233 0
-51 -227 0
-161 -227 0
-227 -237 0
-83 -112 0
-83 -233 0
-51 -83 0
-83 -161 0
-83 -237 0
-112 -233 0
-51 -112 0
-112 -161 0
-112 -237 0
-51 -233 0
-161 -233 0
-233 -237 0
-51 -161 0
-51 -237 0
-161 -237 0
-61 -125 0
-117 -125 0
-125 -145 0
-45 -125 0
-32 -125 0
-125 -203 0
-61 -117 0
-61 -145 0
-45 -61 0
-32 -61 0
-61 -203 0
-117 -145 0
-45 -117 0
-32 -117 0
-117 -203 0
-45 -145 0
-32 -145 0
-145 -203 0
-32 -45 0
-45 -203 0
-32 -203 0
-67 -189 0
-180 -189 0
-151 -189 0
-64 -189 0
-170 -189 0
-189 -206 0
-67 -180 0
-67 -151 0
-64 -67 0
-67 -170 0
-67 -206 0
-151 -180 0
-64 -180 0
-170 -180 0
-180 -206 0
-64 -151 0
-151 -170 0
-151 -206 0
-64 -170 0
-64 -206 0
-170 -206 0
-28 -229 0
-229 -234 0
-38 -229 0
-174 -229 0
-209 -229 0
-28 -234 0
-28 -38 0
-28 -174 0
-28 -209 0
-38 -234 0
-174 -234 0
-209 -234 0
-38 -174 0
-38 -209 0
-174 -209 0
-25 -33 0
-33 -235 0
-33 -89 0
-33 -187 0
-33 -238 0
-25 -235 0
-25 -89 0
-25 -187 0
-25 -238 0
-89 -235 0
-187 -235 0
-235 -238 0
-89 -187 0
-89 -238 0
-187 -238 0
-96 -239 0
-110 -239 0
-144 -239 0
-69 -239 0
-66 -239 0
-96 -110 0
-96 -144 0
-69 -96 0
-66 -96 0
-110 -144 0
-69 -110 0
-66 -110 0
-69 -144 0
-66 -144 0
-66 -69 0
-175 -177 0
-128 -175 0
-175 -191 0
-95 -175 0
-175 -240 0
-128 -177 0
-177 -191 0
-95 -177 0
-177 -240 0
-128 -191 0
-95 -128 0
-128 -240 0
-95 -191 0
-191 -240 0
-95 -240 0
-121 -150 0
-121 -138 0
-121 -241 0
-121 -242 0
-121 -127 0
-138 -150 0
-150 -241 0
-150 -242 0
-127 -150 0
-138 -241 0
-138 -242 0
-127 -138 0
-241 -242 0
-127 -241 0
-127 -242 0
-29 -120 0
-29 -183 0
-120 -183 0
-163 -168 0
-163 -171 0
-126 -163 0
-163 -188 0
-168 -171 0
-126 -168 0
-168 -188 0
-126 -171 0
-171 -188 0
-126 -188 0
-204 -243 0
-207 -243 0
-72 -243 0
-243 -244 0
-204 -207 0
-72 -204 0
-204 -244 0
-72 -207 0
-207 -244 0
-72 -244 0
-175 -239 0
-121 -239 0
-121 -175 0
-96 -177 0
-96 -150 0
-29 -96 0
-96 -163 0
-96 -243 0
-150 -177 0
-29 -177 0
-163 -177 0
-177 -243 0
-29 -150 0
-150 -163 0
-150 -243 0
-29 -163 0
-29 -243 0
-163 -243 0
-110 -128 0
-110 -138 0
-110 -120 0
-110 -168 0
-110 -204 0
-128 -138 0
-120 -128 0
-128 -168 0
-128 -204 0
-120 -138 0
-138 -168 0
-138 -204 0
-120 -168 0
-120 -204 0
-168 -204 0
-144 -191 0
-144 -241 0
-144 -183 0
-144 -171 0
-144 -207 0
-191 -241 0
-183 -191 0
-171 -191 0
-191 -207 0
-183 -241 0
-171 -241 0
-207 -241 0
-171 -183 0
-183 -207 0
-171 -207 0
-69 -95 0
-69 -242 0
-69 -126 0
-69 -72 0
-95 -242 0
-95 -126 0
-72 -95 0
-126 -242 0
-72 -242 0
-72 -126 0
-66 -240 0
-66 -127 0
-66 -188 0
-66 -244 0
-127 -240 0
-188 -240 0
-240 -244 0
-127 -188 0
-127 -244 0
-188 -244 0
-49 -164 0
-49 -80 0
-49 -172 0
-80 -164 0
-164 -172 0
-80 -172 0
-99 -256 0
-218 -256 0
-130 -256 0
-99 -218 0
-99 -130 0
-130 -218 0
-41 -87 0
-11 -41 0
-41 -149 0
-11 -87 0
-87 -149 0
-11 -149 0
-27 -245 0
-245 -246 0
-24 -245 0
-27 -246 0
-24 -27 0
-24 -246 0
-129 -176 0
-176 -190 0
-129 -190 0
-49 -256 0
-41 -245 0
-99 -164 0
-87 -164 0
-27 -164 0
-164 -176 0
-87 -99 0
-27 -99 0
-99 -176 0
-27 -87 0
-87 -176 0
-27 -176 0
-80 -218 0
-11 -80 0
-80 -246 0
-80 -129 0
-11 -218 0
-218 -246 0
-129 -218 0
-11 -246 0
-11 -129 0
-129 -246 0
-130 -172 0
-149 -172 0
-24 -172 0
-172 -190 0
-130 -149 0
-24 -130 0
-130 -190 0
-24 -149 0
-149 -190 0
-24 -190 0
-94 -221 0
-44 -221 0
-147 -221 0
-85 -221 0
-107 -221 0
-84 -221 0
-44 -94 0
-94 -147 0
-85 -94 0
-94 -107 0
-84 -94 0
-44 -147 0
-44 -85 0
-44 -107 0
-44 -84 0
-85 -147 0
-107 -147 0
-84 -147 0
-85 -107 0
-84 -85 0
-84 -107 0
-59 -185 0
-59 -193 0
-59 -224 0
-59 -200 0
-59 -141 0
-59 -202 0
-185 -193 0
-185 -224 0
-185 -200 0
-141 -185 0
-185 -202 0
-193 -224 0
-193 -200 0
-141 -193 0
-193 -202 0
-200 -224 0
-141 -224 0
-202 -224 0
-141 -200 0
-200 -202 0
-141 -202 0
-143 -261 0
-143 -248 0
-82 -143 0
-143 -247 0
-143 -226 0
-56 -143 0
-248 -261 0
-82 -261 0
-247 -261 0
-226 -261 0
-56 -261 0
-82 -248 0
-247 -248 0
-226 -248 0
-56 -248 0
-82 -247 0
-82 -226 0
-56 -82 0
-226 -247 0
-56 -247 0
-56 -226 0
-40 -104 0
-40 -250 0
-104 -250 0
-251 -252 0
-26 -251 0
-251 -253 0
-13 -251 0
-48 -251 0
-12 -251 0
-26 -252 0
-252 -253 0
-13 -252 0
-48 -252 0
-12 -252 0
-26 -253 0
-13 -26 0
-26 -48 0
-12 -26 0
-13 -253 0
-48 -253 0
-12 -253 0
-13 -48 0
-12 -13 0
-12 -48 0
-9 -81 0
-9 -75 0
-9 -165 0
-9 -173 0
-9 -184 0
-9 -192 0
-75 -81 0
-81 -165 0
-81 -173 0
-81 -184 0
-81 -192 0
-75 -165 0
-75 -173 0
-75 -184 0
-75 -192 0
-165 -173 0
-165 -184 0
-165 -192 0
-173 -184 0
-173 -192 0
-184 -192 0
-197 -254 0
-197 -199 0
-197 -255 0
-197 -208 0
-197 -257 0
-197 -258 0
-199 -254 0
-254 -255 0
-208 -254 0
-254 -257 0
-254 -258 0
-199 -255 0
-199 -208 0
-199 -257 0
-199 -258 0
-208 -255 0
-255 -257 0
-255 -258 0
-208 -257 0
-208 -258 0
-257 -258 0
-59 -221 0
-143 -221 0
-40 -221 0
-221 -251 0
-9 -221 0
-197 -221 0
-59 -143 0
-40 -59 0
-59 -251 0
-9 -59 0
-59 -197 0
-40 -143 0
-143 -251 0
-9 -143 0
-143 -197 0
-40 -251 0
-9 -40 0
-40 -197 0
-9 -251 0
-197 -251 0
-9 -197 0
-94 -185 0
-94 -261 0
-94 -104 0
-94 -252 0
-81 -94 0
-94 -254 0
-185 -261 0
-104 -185 0
-185 -252 0
-81 -185 0
-185 -254 0
-104 -261 0
-252 -261 0
-81 -261 0
-254 -261 0
-104 -252 0
-81 -104 0
-104 -254 0
-81 -252 0
-252 -254 0
-81 -254 0
-44 -193 0
-44 -248 0
-44 -250 0
-26 -44 0
-44 -75 0
-44 -199 0
-193 -248 0
-193 -250 0
-26 -193 0
-75 -193 0
-193 -199 0
-248 -250 0
-26 -248 0
-75 -248 0
-199 -248 0
-26 -250 0
-75 -250 0
-199 -250 0
-26 -75 0
-26 -199 0
-75 -199 0
-147 -224 0
-82 -147 0
-147 -253 0
-147 -165 0
-147 -255 0
-82 -224 0
-224 -253 0
-165 -224 0
-224 -255 0
-82 -253 0
-82 -165 0
-82 -255 0
-165 -253 0
-253 -255 0
-165 -255 0
-85 -200 0
-85 -247 0
-13 -85 0
-85 -173 0
-85 -208 0
-200 -247 0
-13 -200 0
-173 -200 0
-200 -208 0
-13 -247 0
-173 -247 0
-208 -247 0
-13 -173 0
-13 -208 0
-173 -208 0
-107 -141 0
-107 -226 0
-48 -107 0
-107 -184 0
-107 -257 0
-141 -226 0
-48 -141 0
-141 -184 0
-141 -257 0
-48 -226 0
-184 -226 0
-226 -257 0
-48 -184 0
-48 -257 0
-184 -257 0
-84 -202 0
-56 -84 0
-12 -84 0
-84 -192 0
-84 -258 0
-56 -202 0
-12 -202 0
-192 -202 0
-202 -258 0
-12 -56 0
-56 -192 0
-56 -258 0
-12 -192 0
-12 -258 0
-192 -258 0
-113 -178 0
-178 -195 0
-113 -195 0
-20 -50 0
-20 -46 0
-20 -36 0
-20 -78 0
-46 -50 0
-36 -50 0
-50 -78 0
-36 -46 0
-46 -78 0
-36 -78 0
-73 -162 0
-31 -73 0
-73 -259 0
-22 -73 0
-31 -162 0
-162 -259 0
-22 -162 0
-31 -259 0
-22 -31 0
-22 -259 0
-123 -260 0
-18 -260 0
-92 -260 0
-93 -260 0
-43 -260 0
-18 -123 0
-92 -123 0
-93 -123 0
-43 -123 0
-18 -92 0
-18 -93 0
-18 -43 0
-92 -93 0
-43 -92 0
-43 -93 0
-109 -148 0
-86 -148 0
-106 -148 0
-148 -186 0
-148 -194 0
-86 -109 0
-106 -109 0
-109 -186 0
-109 -194 0
-86 -106 0
-86 -186 0
-86 -194 0
-106 -186 0
-106 -194 0
-186 -194 0
-142 -223 0
-201 -223 0
-140 -223 0
-223 -262 0
-223 -249 0
-142 -201 0
-140 -142 0
-142 -262 0
-142 -249 0
-140 -201 0
-201 -262 0
-201 -249 0
-140 -262 0
-140 -249 0
-249 -262 0
-20 -178 0
-73 -178 0
-178 -260 0
-148 -178 0
-178 -223 0
-20 -73 0
-20 -260 0
-20 -148 0
-20 -223 0
-73 -260 0
-73 -148 0
-73 -223 0
-148 -260 0
-223 -260 0
-148 -223 0
-50 -113 0
-113 -162 0
-113 -123 0
-109 -113 0
-113 -142 0
-50 -162 0
-50 -123 0
-50 -109 0
-50 -142 0
-123 -162 0
-109 -162 0
-142 -162 0
-109 -123 0
-123 -142 0
-109 -142 0
-46 -195 0
-31 -195 0
-18 -195 0
-86 -195 0
-195 -201 0
-31 -46 0
-18 -46 0
-46 -86 0
-46 -201 0
-18 -31 0
-31 -86 0
-31 -201 0
-18 -86 0
-18 -201 0
-86 -201 0
-92 -106 0
-92 -140 0
-106 -140 0
-36 -259 0
-36 -93 0
-36 -186 0
-36 -262 0
-93 -259 0
-186 -259 0
-259 -262 0
-93 -186 0
-93 -262 0
-186 -262 0
-22 -78 0
-43 -78 0
-78 -194 0
-78 -249 0
-22 -43 0
-22 -194 0
-22 -249 0
-43 -194 0
-43 -249 0
-194 -249 0
-65 -264 0
-97 -264 0
-90 -264 0
-155 -264 0
-70 -264 0
-65 -97 0
-65 -90 0
-65 -155 0
-65 -70 0
-90 -97 0
-97 -155 0
-70 -97 0
-90 -155 0
-70 -90 0
-70 -155 0
-119 -181 0
-132 -181 0
-181 -265 0
-136 -181 0
-181 -266 0
-119 -132 0
-119 -265 0
-119 -136 0
-119 -266 0
-132 -265 0
-132 -136 0
-132 -266 0
-136 -265 0
-265 -266 0
-136 -266 0
-8 -210 0
-58 -210 0
-7 -210 0
-118 -210 0
-55 -210 0
-8 -58 0
-7 -8 0
-8 -118 0
-8 -55 0
-7 -58 0
-58 -118 0
-55 -58 0
-7 -118 0
-7 -55 0
-55 -118 0
-6 -54 0
-54 -100 0
-37 -54 0
-6 -100 0
-6 -37 0
-37 -100 0
-5 -21 0
-21 -77 0
-21 -71 0
-5 -77 0
-5 -71 0
-71 -77 0
-179 -196 0
-181 -264 0
-210 -264 0
-54 -264 0
-21 -264 0
-181 -210 0
-54 -181 0
-21 -181 0
-54 -210 0
-21 -210 0
-21 -54 0
-65 -119 0
-8 -65 0
-6 -65 0
-5 -65 0
-8 -119 0
-6 -119 0
-5 -119 0
-6 -8 0
-5 -8 0
-5 -6 0
-97 -132 0
-58 -97 0
-97 -100 0
-77 -97 0
-58 -132 0
-100 -132 0
-77 -132 0
-58 -100 0
-58 -77 0
-77 -100 0
-90 -265 0
-7 -90 0
-37 -90 0
-71 -90 0
-7 -265 0
-37 -265 0
-71 -265 0
-7 -37 0
-7 -71 0
-37 -71 0
-136 -155 0
-118 -155 0
-155 -179 0
-118 -136 0
-136 -179 0
-118 -179 0
-70 -266 0
-55 -70 0
-70 -196 0
-55 -266 0
-196 -266 0
-55 -196 0
-105 -156 0
-4 -35 0
-2 -3 0
-3 -139 0
-3 -263 0
-3 -98 0
-2 -139 0
-2 -263 0
-2 -98 0
-139 -263 0
-98 -139 0
-98 -263 0
-153 -154 0
-30 -153 0
-153 -182 0
-133 -153 0
-30 -154 0
-154 -182 0
-133 -154 0
-30 -182 0
-30 -133 0
-133 -182 0
-135 -137 0
-137 -205 0
-137 -211 0
-1 -137 0
-135 -205 0
-135 -211 0
-1 -135 0
-205 -211 0
-1 -205 0
-1 -211 0
-3 -153 0
-3 -137 0
-137 -153 0
-2 -105 0
-105 -154 0
-105 -135 0
-2 -154 0
-2 -135 0
-135 -154 0
-139 -156 0
-30 -156 0
-156 -205 0
-30 -139 0
-139 -205 0
-30 -205 0
-4 -263 0
-4 -182 0
-4 -211 0
-182 -263 0
-211 -263 0
-182 -211 0
-35 -98 0
-35 -133 0
-1 -35 0
-98 -133 0
-1 -98 0
-1 -133 0
-16 -212 0
-88 -212 0
-114 -212 0
-103 -212 0
-212 -215 0
-16 -88 0
-16 -114 0
-16 -103 0
-16 -215 0
-88 -114 0
-88 -103 0
-88 -215 0
-103 -114 0
-114 -215 0
-103 -215 0
-175 -239 0
-121 -239 0
-121 -175 0
-49 -256 0
-94 -221 0
-44 -221 0
-59 -221 0
-185 -221 0
-193 -221 0
-143 -221 0
-221 -261 0
-221 -248 0
-44 -94 0
-59 -94 0
-94 -185 0
-94 -193 0
-94 -143 0
-94 -261 0
-94 -248 0
-44 -59 0
-44 -185 0
-44 -193 0
-44 -143 0
-44 -261 0
-44 -248 0
-59 -185 0
-59 -193 0
-59 -143 0
-59 -261 0
-59 -248 0
-185 -193 0
-143 -185 0
-185 -261 0
-185 -248 0
-143 -193 0
-193 -261 0
-193 -248 0
-143 -261 0
-143 -248 0
-248 -261 0
-113 -178 0
-178 -195 0
-113 -195 0
-65 -264 0
-181 -264 0
-119 -264 0
-210 -264 0
-8 -264 0
-65 -181 0
-65 -119 0
-65 -210 0
-8 -65 0
-119 -181 0
-181 -210 0
-8 -181 0
-119 -210 0
-8 -119 0
-8 -210 0
-63 -68 0
-63 -158 0
-63 -213 0
-63 -124 0
-63 -214 0
-63 -146 0
-63 -152 0
-63 -216 0
-68 -158 0
-68 -213 0
-68 -124 0
-68 -214 0
-68 -146 0
-68 -152 0
-68 -216 0
-158 -213 0
-124 -158 0
-158 -214 0
-146 -158 0
-152 -158 0
-158 -216 0
-124 -213 0
-213 -214 0
-146 -213 0
-152 -213 0
-213 -216 0
-124 -214 0
-124 -146 0
-124 -152 0
-124 -216 0
-146 -214 0
-152 -214 0
-214 -216 0
-146 -152 0
-146 -216 0
-152 -216 0
-125 -227 0
-189 -227 0
-125 -189 0
-96 -110 0
-96 -144 0
-96 -177 0
-96 -128 0
-96 -191 0
-96 -150 0
-96 -138 0
-96 -241 0
-110 -144 0
-110 -177 0
-110 -128 0
-110 -191 0
-110 -150 0
-110 -138 0
-110 -241 0
-144 -177 0
-128 -144 0
-144 -191 0
-144 -150 0
-138 -144 0
-144 -241 0
-128 -177 0
-177 -191 0
-150 -177 0
-138 -177 0
-177 -241 0
-128 -191 0
-128 -150 0
-128 -138 0
-128 -241 0
-150 -191 0
-138 -191 0
-191 -241 0
-138 -150 0
-150 -241 0
-138 -241 0
-85 -147 0
-147 -224 0
-147 -200 0
-82 -147 0
-147 -247 0
-85 -224 0
-85 -200 0
-82 -85 0
-85 -247 0
-200 -224 0
-82 -224 0
-224 -247 0
-82 -200 0
-200 -247 0
-82 -247 0
-90 -97 0
-97 -132 0
-97 -265 0
-58 -97 0
-7 -97 0
-90 -132 0
-90 -265 0
-58 -90 0
-7 -90 0
-132 -265 0
-58 -132 0
-7 -132 0
-58 -265 0
-7 -265 0
-7 -58 0
-105 -156 0
-34 -76 0
-34 -111 0
-76 -111 0
-66 -69 0
-69 -95 0
-69 -240 0
-69 -242 0
-69 -127 0
-66 -95 0
-66 -240 0
-66 -242 0
-66 -127 0
-95 -240 0
-95 -242 0
-95 -127 0
-240 -242 0
-127 -240 0
-127 -242 0
-80 -164 0
-164 -172 0
-99 -164 0
-164 -218 0
-130 -164 0
-80 -172 0
-80 -99 0
-80 -218 0
-80 -130 0
-99 -172 0
-172 -218 0
-130 -172 0
-99 -218 0
-99 -130 0
-130 -218 0
-84 -107 0
-107 -141 0
-107 -202 0
-107 -226 0
-56 -107 0
-84 -141 0
-84 -202 0
-84 -226 0
-56 -84 0
-141 -202 0
-141 -226 0
-56 -141 0
-202 -226 0
-56 -202 0
-56 -226 0
-70 -155 0
-136 -155 0
-155 -266 0
-118 -155 0
-55 -155 0
-70 -136 0
-70 -266 0
-70 -118 0
-55 -70 0
-136 -266 0
-118 -136 0
-55 -136 0
-118 -266 0
-55 -266 0
-55 -118 0
-122 -220 0
-108 -122 0
-60 -122 0
-108 -220 0
-60 -220 0
-60 -108 0
-52 -228 0
-52 -230 0
-52 -57 0
-52 -231 0
-52 -232 0
-228 -230 0
-57 -228 0
-228 -231 0
-228 -232 0
-57 -230 0
-230 -231 0
-230 -232 0
-57 -231 0
-57 -232 0
-231 -232 0
-40 -104 0
-40 -250 0
-104 -250 0
-20 -50 0
-20 -46 0
-20 -73 0
-20 -162 0
-20 -31 0
-46 -50 0
-50 -73 0
-50 -162 0
-31 -50 0
-46 -73 0
-46 -162 0
-31 -46 0
-73 -162 0
-31 -73 0
-31 -162 0
-6 -54 0
-21 -54 0
-5 -54 0
-6 -21 0
-5 -6 0
-5 -21 0
-14 -47 0
-39 -47 0
-14 -39 0
-42 -101 0
-42 -102 0
-42 -222 0
-101 -102 0
-101 -222 0
-102 -222 0
-61 -83 0
-67 -83 0
-83 -112 0
-83 -117 0
-83 -180 0
-83 -233 0
-83 -145 0
-83 -151 0
-61 -67 0
-61 -112 0
-61 -117 0
-61 -180 0
-61 -233 0
-61 -145 0
-61 -151 0
-67 -112 0
-67 -117 0
-67 -180 0
-67 -233 0
-67 -145 0
-67 -151 0
-112 -117 0
-112 -180 0
-112 -233 0
-112 -145 0
-112 -151 0
-117 -180 0
-117 -233 0
-117 -145 0
-117 -151 0
-180 -233 0
-145 -180 0
-151 -180 0
-145 -233 0
-151 -233 0
-145 -151 0
-29 -120 0
-29 -183 0
-120 -183 0
-41 -245 0
-37 -100 0
-77 -100 0
-71 -100 0
-37 -77 0
-37 -71 0
-71 -77 0
-33 -229 0
-28 -229 0
-25 -229 0
-229 -234 0
-229 -235 0
-28 -33 0
-25 -33 0
-33 -234 0
-33 -235 0
-25 -28 0
-28 -234 0
-28 -235 0
-25 -234 0
-25 -235 0
-234 -235 0
-11 -87 0
-87 -149 0
-27 -87 0
-87 -246 0
-24 -87 0
-11 -149 0
-11 -27 0
-11 -246 0
-11 -24 0
-27 -149 0
-149 -246 0
-24 -149 0
-27 -246 0
-24 -27 0
-24 -246 0
-36 -78 0
-36 -259 0
-22 -36 0
-78 -259 0
-22 -78 0
-22 -259 0
-4 -35 0
-53 -217 0
-10 -217 0
-157 -217 0
-10 -53 0
-53 -157 0
-10 -157 0
-131 -225 0
-62 -225 0
-159 -225 0
-62 -131 0
-131 -159 0
-62 -159 0
-19 -236 0
-79 -236 0
-74 -236 0
-23 -236 0
-198 -236 0
-19 -79 0
-19 -74 0
-19 -23 0
-19 -198 0
-74 -79 0
-23 -79 0
-79 -198 0
-23 -74 0
-74 -198 0
-23 -198 0
-251 -252 0
-26 -251 0
-9 -251 0
-81 -251 0
-75 -251 0
-197 -251 0
-251 -254 0
-199 -251 0
-26 -252 0
-9 -252 0
-81 -252 0
-75 -252 0
-197 -252 0
-252 -254 0
-199 -252 0
-9 -26 0
-26 -81 0
-26 -75 0
-26 -197 0
-26 -254 0
-26 -199 0
-9 -81 0
-9 -75 0
-9 -197 0
-9 -254 0
-9 -199 0
-75 -81 0
-81 -197 0
-81 -254 0
-81 -199 0
-75 -197 0
-75 -254 0
-75 -199 0
-197 -254 0
-197 -199 0
-199 -254 0
-123 -260 0
-18 -260 0
-148 -260 0
-109 -260 0
-86 -260 0
-223 -260 0
-142 -260 0
-201 -260 0
-18 -123 0
-123 -148 0
-109 -123 0
-86 -123 0
-123 -223 0
-123 -142 0
-123 -201 0
-18 -148 0
-18 -109 0
-18 -86 0
-18 -223 0
-18 -142 0
-18 -201 0
-109 -148 0
-86 -148 0
-148 -223 0
-142 -148 0
-148 -201 0
-86 -109 0
-109 -223 0
-109 -142 0
-109 -201 0
-86 -223 0
-86 -142 0
-86 -201 0
-142 -223 0
-201 -223 0
-142 -201 0
-3 -153 0
-3 -137 0
-137 -153 0
-17 -219 0
-91 -219 0
-160 -219 0
-166 -219 0
-169 -219 0
-17 -91 0
-17 -160 0
-17 -166 0
-17 -169 0
-91 -160 0
-91 -166 0
-91 -169 0
-160 -166 0
-160 -169 0
-166 -169 0
-15 -134 0
-134 -167 0
-115 -134 0
-15 -167 0
-15 -115 0
-115 -167 0
-45 -51 0
-51 -64 0
-51 -161 0
-32 -51 0
-51 -170 0
-51 -237 0
-51 -203 0
-51 -206 0
-45 -64 0
-45 -161 0
-32 -45 0
-45 -170 0
-45 -237 0
-45 -203 0
-45 -206 0
-64 -161 0
-32 -64 0
-64 -170 0
-64 -237 0
-64 -203 0
-64 -206 0
-32 -161 0
-161 -170 0
-161 -237 0
-161 -203 0
-161 -206 0
-32 -170 0
-32 -237 0
-32 -203 0
-32 -206 0
-170 -237 0
-170 -203 0
-170 -206 0
-203 -237 0
-206 -237 0
-203 -206 0
-163 -168 0
-163 -171 0
-163 -243 0
-163 -204 0
-163 -207 0
-168 -171 0
-168 -243 0
-168 -204 0
-168 -207 0
-171 -243 0
-171 -204 0
-171 -207 0
-204 -243 0
-207 -243 0
-204 -207 0
-13 -253 0
-165 -253 0
-173 -253 0
-253 -255 0
-208 -253 0
-13 -165 0
-13 -173 0
-13 -255 0
-13 -208 0
-165 -173 0
-165 -255 0
-165 -208 0
-173 -255 0
-173 -208 0
-208 -255 0
-92 -106 0
-92 -140 0
-106 -140 0
-2 -139 0
-2 -154 0
-2 -30 0
-2 -135 0
-2 -205 0
-139 -154 0
-30 -139 0
-135 -139 0
-139 -205 0
-30 -154 0
-135 -154 0
-154 -205 0
-30 -135 0
-30 -205 0
-135 -205 0
-38 -89 0
-38 -174 0
-38 -187 0
-38 -209 0
-38 -238 0
-89 -174 0
-89 -187 0
-89 -209 0
-89 -238 0
-174 -187 0
-174 -209 0
-174 -238 0
-187 -209 0
-187 -238 0
-209 -238 0
-126 -188 0
-72 -126 0
-126 -244 0
-72 -188 0
-188 -244 0
-72 -244 0
-129 -176 0
-176 -190 0
-129 -190 0
-12 -48 0
-48 -184 0
-48 -192 0
-48 -257 0
-48 -258 0
-12 -184 0
-12 -192 0
-12 -257 0
-12 -258 0
-184 -192 0
-184 -257 0
-184 -258 0
-192 -257 0
-192 -258 0
-257 -258 0
-43 -93 0
-93 -186 0
-93 -194 0
-93 -262 0
-93 -249 0
-43 -186 0
-43 -194 0
-43 -262 0
-43 -249 0
-186 -194 0
-186 -262 0
-186 -249 0
-194 -262 0
-194 -249 0
-249 -262 0
-179 -196 0
-98 -263 0
-182 -263 0
-133 -263 0
-211 -263 0
-1 -263 0
-98 -182 0
-98 -133 0
-98 -211 0
-1 -98 0
-133 -182 0
-182 -211 0
-1 -182 0
-133 -211 0
-1 -133 0
-1 -211 0
